inputs/rsa/s-rsa-1.smt2.cnf
p cnf 365 1273
cr 334 335 336 337 338 339 340 341 342 343 344 345 346 347 348 349 350 351 352 353 354 355 356 357 358 359 360 361 362 363 364 365
1 -334 0
-1 334 0
2 -335 0
-2 335 0
3 -336 0
-3 336 0
4 -337 0
-4 337 0
5 -338 0
-5 338 0
6 -339 0
-6 339 0
7 -340 0
-7 340 0
8 -341 0
-8 341 0
9 -342 0
-9 342 0
10 -343 0
-10 343 0
11 -344 0
-11 344 0
12 -345 0
-12 345 0
13 -346 0
-13 346 0
14 -347 0
-14 347 0
15 -348 0
-15 348 0
16 -349 0
-16 349 0
17 -350 0
-17 350 0
18 -351 0
-18 351 0
19 -352 0
-19 352 0
20 -353 0
-20 353 0
21 -354 0
-21 354 0
22 -355 0
-22 355 0
23 -356 0
-23 356 0
24 -357 0
-24 357 0
25 -358 0
-25 358 0
26 -359 0
-26 359 0
27 -360 0
-27 360 0
28 -361 0
-28 361 0
29 -362 0
-29 362 0
30 -363 0
-30 363 0
31 -364 0
-31 364 0
32 -365 0
-32 365 0
-32 0
-5 33 0
-4 33 0
5 4 -33 0
-6 34 0
-33 34 0
6 33 -34 0
-7 35 0
-34 35 0
7 34 -35 0
-8 36 0
-35 36 0
8 35 -36 0
-9 37 0
-36 37 0
9 36 -37 0
-10 38 0
-37 38 0
10 37 -38 0
-11 39 0
-38 39 0
11 38 -39 0
-12 40 0
-39 40 0
12 39 -40 0
-13 41 0
-40 41 0
13 40 -41 0
-14 42 0
-41 42 0
14 41 -42 0
-15 43 0
-42 43 0
15 42 -43 0
-16 44 0
-43 44 0
16 43 -44 0
-17 45 0
-44 45 0
17 44 -45 0
-18 46 0
-45 46 0
18 45 -46 0
-19 47 0
-46 47 0
19 46 -47 0
-20 48 0
-47 48 0
20 47 -48 0
-21 49 0
-48 49 0
21 48 -49 0
-22 50 0
-49 50 0
22 49 -50 0
-23 51 0
-50 51 0
23 50 -51 0
-24 52 0
-51 52 0
24 51 -52 0
-25 53 0
-52 53 0
25 52 -53 0
-26 54 0
-53 54 0
26 53 -54 0
-27 55 0
-54 55 0
27 54 -55 0
-28 56 0
-55 56 0
28 55 -56 0
-29 57 0
-56 57 0
29 56 -57 0
-30 58 0
-57 58 0
30 57 -58 0
-31 59 0
-58 59 0
31 58 -59 0
-31 60 0
-58 60 0
31 58 -60 0
32 -60 0
1 0
-61 2 1 0
-61 -2 -1 0
61 -2 1 0
61 2 -1 0
-32 61 -62 0
32 2 -62 0
-32 -61 62 0
32 -2 62 0
61 2 -62 0
-61 -2 62 0
-2 63 0
-1 63 0
2 1 -63 0
-64 3 63 0
-64 -3 -63 0
64 -3 63 0
64 3 -63 0
-32 64 -65 0
32 3 -65 0
-32 -64 65 0
32 -3 65 0
64 3 -65 0
-64 -3 65 0
-66 65 62 0
-66 -65 -62 0
66 -65 62 0
66 65 -62 0
-32 66 -67 0
32 3 -67 0
-32 -66 67 0
32 -3 67 0
66 3 -67 0
-66 -3 67 0
-67 68 0
-62 68 0
67 62 -68 0
-65 69 0
-62 69 0
65 62 -69 0
-3 70 0
-63 70 0
3 63 -70 0
-71 4 70 0
-71 -4 -70 0
71 -4 70 0
71 4 -70 0
-32 71 -72 0
32 4 -72 0
-32 -71 72 0
32 -4 72 0
71 4 -72 0
-71 -4 72 0
-73 72 69 0
-73 -72 -69 0
73 -72 69 0
73 72 -69 0
-32 73 -74 0
32 4 -74 0
-32 -73 74 0
32 -4 74 0
73 4 -74 0
-73 -4 74 0
-74 75 0
-68 75 0
74 68 -75 0
-72 76 0
-69 76 0
72 69 -76 0
-4 77 0
-70 77 0
4 70 -77 0
-78 5 77 0
-78 -5 -77 0
78 -5 77 0
78 5 -77 0
-32 78 -79 0
32 5 -79 0
-32 -78 79 0
32 -5 79 0
78 5 -79 0
-78 -5 79 0
-80 79 76 0
-80 -79 -76 0
80 -79 76 0
80 79 -76 0
-32 80 -81 0
32 5 -81 0
-32 -80 81 0
32 -5 81 0
80 5 -81 0
-80 -5 81 0
-81 82 0
-75 82 0
81 75 -82 0
-79 83 0
-76 83 0
79 76 -83 0
-5 84 0
-77 84 0
5 77 -84 0
-85 6 84 0
-85 -6 -84 0
85 -6 84 0
85 6 -84 0
-32 85 -86 0
32 6 -86 0
-32 -85 86 0
32 -6 86 0
85 6 -86 0
-85 -6 86 0
-87 86 83 0
-87 -86 -83 0
87 -86 83 0
87 86 -83 0
-32 87 -88 0
32 6 -88 0
-32 -87 88 0
32 -6 88 0
87 6 -88 0
-87 -6 88 0
-88 89 0
-82 89 0
88 82 -89 0
-86 90 0
-83 90 0
86 83 -90 0
-6 91 0
-84 91 0
6 84 -91 0
-92 7 91 0
-92 -7 -91 0
92 -7 91 0
92 7 -91 0
-32 92 -93 0
32 7 -93 0
-32 -92 93 0
32 -7 93 0
92 7 -93 0
-92 -7 93 0
-94 93 90 0
-94 -93 -90 0
94 -93 90 0
94 93 -90 0
-32 94 -95 0
32 7 -95 0
-32 -94 95 0
32 -7 95 0
94 7 -95 0
-94 -7 95 0
-95 96 0
-89 96 0
95 89 -96 0
-93 97 0
-90 97 0
93 90 -97 0
-7 98 0
-91 98 0
7 91 -98 0
-99 8 98 0
-99 -8 -98 0
99 -8 98 0
99 8 -98 0
-32 99 -100 0
32 8 -100 0
-32 -99 100 0
32 -8 100 0
99 8 -100 0
-99 -8 100 0
-101 100 97 0
-101 -100 -97 0
101 -100 97 0
101 100 -97 0
-32 101 -102 0
32 8 -102 0
-32 -101 102 0
32 -8 102 0
101 8 -102 0
-101 -8 102 0
-102 103 0
-96 103 0
102 96 -103 0
-100 104 0
-97 104 0
100 97 -104 0
-8 105 0
-98 105 0
8 98 -105 0
-106 9 105 0
-106 -9 -105 0
106 -9 105 0
106 9 -105 0
-32 106 -107 0
32 9 -107 0
-32 -106 107 0
32 -9 107 0
106 9 -107 0
-106 -9 107 0
-108 107 104 0
-108 -107 -104 0
108 -107 104 0
108 107 -104 0
-32 108 -109 0
32 9 -109 0
-32 -108 109 0
32 -9 109 0
108 9 -109 0
-108 -9 109 0
-109 110 0
-103 110 0
109 103 -110 0
-107 111 0
-104 111 0
107 104 -111 0
-9 112 0
-105 112 0
9 105 -112 0
-113 10 112 0
-113 -10 -112 0
113 -10 112 0
113 10 -112 0
-32 113 -114 0
32 10 -114 0
-32 -113 114 0
32 -10 114 0
113 10 -114 0
-113 -10 114 0
-115 114 111 0
-115 -114 -111 0
115 -114 111 0
115 114 -111 0
-32 115 -116 0
32 10 -116 0
-32 -115 116 0
32 -10 116 0
115 10 -116 0
-115 -10 116 0
-116 117 0
-110 117 0
116 110 -117 0
-114 118 0
-111 118 0
114 111 -118 0
-10 119 0
-112 119 0
10 112 -119 0
-120 11 119 0
-120 -11 -119 0
120 -11 119 0
120 11 -119 0
-32 120 -121 0
32 11 -121 0
-32 -120 121 0
32 -11 121 0
120 11 -121 0
-120 -11 121 0
-122 121 118 0
-122 -121 -118 0
122 -121 118 0
122 121 -118 0
-32 122 -123 0
32 11 -123 0
-32 -122 123 0
32 -11 123 0
122 11 -123 0
-122 -11 123 0
-123 124 0
-117 124 0
123 117 -124 0
-121 125 0
-118 125 0
121 118 -125 0
-11 126 0
-119 126 0
11 119 -126 0
-127 12 126 0
-127 -12 -126 0
127 -12 126 0
127 12 -126 0
-32 127 -128 0
32 12 -128 0
-32 -127 128 0
32 -12 128 0
127 12 -128 0
-127 -12 128 0
-129 128 125 0
-129 -128 -125 0
129 -128 125 0
129 128 -125 0
-32 129 -130 0
32 12 -130 0
-32 -129 130 0
32 -12 130 0
129 12 -130 0
-129 -12 130 0
-130 131 0
-124 131 0
130 124 -131 0
-128 132 0
-125 132 0
128 125 -132 0
-12 133 0
-126 133 0
12 126 -133 0
-134 13 133 0
-134 -13 -133 0
134 -13 133 0
134 13 -133 0
-32 134 -135 0
32 13 -135 0
-32 -134 135 0
32 -13 135 0
134 13 -135 0
-134 -13 135 0
-136 135 132 0
-136 -135 -132 0
136 -135 132 0
136 135 -132 0
-32 136 -137 0
32 13 -137 0
-32 -136 137 0
32 -13 137 0
136 13 -137 0
-136 -13 137 0
-137 138 0
-131 138 0
137 131 -138 0
-135 139 0
-132 139 0
135 132 -139 0
-13 140 0
-133 140 0
13 133 -140 0
-141 14 140 0
-141 -14 -140 0
141 -14 140 0
141 14 -140 0
-32 141 -142 0
32 14 -142 0
-32 -141 142 0
32 -14 142 0
141 14 -142 0
-141 -14 142 0
-143 142 139 0
-143 -142 -139 0
143 -142 139 0
143 142 -139 0
-32 143 -144 0
32 14 -144 0
-32 -143 144 0
32 -14 144 0
143 14 -144 0
-143 -14 144 0
-144 145 0
-138 145 0
144 138 -145 0
-142 146 0
-139 146 0
142 139 -146 0
-14 147 0
-140 147 0
14 140 -147 0
-148 15 147 0
-148 -15 -147 0
148 -15 147 0
148 15 -147 0
-32 148 -149 0
32 15 -149 0
-32 -148 149 0
32 -15 149 0
148 15 -149 0
-148 -15 149 0
-150 149 146 0
-150 -149 -146 0
150 -149 146 0
150 149 -146 0
-32 150 -151 0
32 15 -151 0
-32 -150 151 0
32 -15 151 0
150 15 -151 0
-150 -15 151 0
-151 152 0
-145 152 0
151 145 -152 0
-149 153 0
-146 153 0
149 146 -153 0
-15 154 0
-147 154 0
15 147 -154 0
-155 16 154 0
-155 -16 -154 0
155 -16 154 0
155 16 -154 0
-32 155 -156 0
32 16 -156 0
-32 -155 156 0
32 -16 156 0
155 16 -156 0
-155 -16 156 0
-157 156 153 0
-157 -156 -153 0
157 -156 153 0
157 156 -153 0
-32 157 -158 0
32 16 -158 0
-32 -157 158 0
32 -16 158 0
157 16 -158 0
-157 -16 158 0
-158 159 0
-152 159 0
158 152 -159 0
-156 160 0
-153 160 0
156 153 -160 0
-16 161 0
-154 161 0
16 154 -161 0
-162 17 161 0
-162 -17 -161 0
162 -17 161 0
162 17 -161 0
-32 162 -163 0
32 17 -163 0
-32 -162 163 0
32 -17 163 0
162 17 -163 0
-162 -17 163 0
-164 163 160 0
-164 -163 -160 0
164 -163 160 0
164 163 -160 0
-32 164 -165 0
32 17 -165 0
-32 -164 165 0
32 -17 165 0
164 17 -165 0
-164 -17 165 0
-165 166 0
-159 166 0
165 159 -166 0
-163 167 0
-160 167 0
163 160 -167 0
-17 168 0
-161 168 0
17 161 -168 0
-169 18 168 0
-169 -18 -168 0
169 -18 168 0
169 18 -168 0
-32 169 -170 0
32 18 -170 0
-32 -169 170 0
32 -18 170 0
169 18 -170 0
-169 -18 170 0
-171 170 167 0
-171 -170 -167 0
171 -170 167 0
171 170 -167 0
-32 171 -172 0
32 18 -172 0
-32 -171 172 0
32 -18 172 0
171 18 -172 0
-171 -18 172 0
-172 173 0
-166 173 0
172 166 -173 0
-170 174 0
-167 174 0
170 167 -174 0
-18 175 0
-168 175 0
18 168 -175 0
-176 19 175 0
-176 -19 -175 0
176 -19 175 0
176 19 -175 0
-32 176 -177 0
32 19 -177 0
-32 -176 177 0
32 -19 177 0
176 19 -177 0
-176 -19 177 0
-178 177 174 0
-178 -177 -174 0
178 -177 174 0
178 177 -174 0
-32 178 -179 0
32 19 -179 0
-32 -178 179 0
32 -19 179 0
178 19 -179 0
-178 -19 179 0
-179 180 0
-173 180 0
179 173 -180 0
-177 181 0
-174 181 0
177 174 -181 0
-19 182 0
-175 182 0
19 175 -182 0
-183 20 182 0
-183 -20 -182 0
183 -20 182 0
183 20 -182 0
-32 183 -184 0
32 20 -184 0
-32 -183 184 0
32 -20 184 0
183 20 -184 0
-183 -20 184 0
-185 184 181 0
-185 -184 -181 0
185 -184 181 0
185 184 -181 0
-32 185 -186 0
32 20 -186 0
-32 -185 186 0
32 -20 186 0
185 20 -186 0
-185 -20 186 0
-186 187 0
-180 187 0
186 180 -187 0
-184 188 0
-181 188 0
184 181 -188 0
-20 189 0
-182 189 0
20 182 -189 0
-190 21 189 0
-190 -21 -189 0
190 -21 189 0
190 21 -189 0
-32 190 -191 0
32 21 -191 0
-32 -190 191 0
32 -21 191 0
190 21 -191 0
-190 -21 191 0
-192 191 188 0
-192 -191 -188 0
192 -191 188 0
192 191 -188 0
-32 192 -193 0
32 21 -193 0
-32 -192 193 0
32 -21 193 0
192 21 -193 0
-192 -21 193 0
-193 194 0
-187 194 0
193 187 -194 0
-191 195 0
-188 195 0
191 188 -195 0
-21 196 0
-189 196 0
21 189 -196 0
-197 22 196 0
-197 -22 -196 0
197 -22 196 0
197 22 -196 0
-32 197 -198 0
32 22 -198 0
-32 -197 198 0
32 -22 198 0
197 22 -198 0
-197 -22 198 0
-199 198 195 0
-199 -198 -195 0
199 -198 195 0
199 198 -195 0
-32 199 -200 0
32 22 -200 0
-32 -199 200 0
32 -22 200 0
199 22 -200 0
-199 -22 200 0
-200 201 0
-194 201 0
200 194 -201 0
-198 202 0
-195 202 0
198 195 -202 0
-22 203 0
-196 203 0
22 196 -203 0
-204 23 203 0
-204 -23 -203 0
204 -23 203 0
204 23 -203 0
-32 204 -205 0
32 23 -205 0
-32 -204 205 0
32 -23 205 0
204 23 -205 0
-204 -23 205 0
-206 205 202 0
-206 -205 -202 0
206 -205 202 0
206 205 -202 0
-32 206 -207 0
32 23 -207 0
-32 -206 207 0
32 -23 207 0
206 23 -207 0
-206 -23 207 0
-207 208 0
-201 208 0
207 201 -208 0
-205 209 0
-202 209 0
205 202 -209 0
-23 210 0
-203 210 0
23 203 -210 0
-211 24 210 0
-211 -24 -210 0
211 -24 210 0
211 24 -210 0
-32 211 -212 0
32 24 -212 0
-32 -211 212 0
32 -24 212 0
211 24 -212 0
-211 -24 212 0
-213 212 209 0
-213 -212 -209 0
213 -212 209 0
213 212 -209 0
-32 213 -214 0
32 24 -214 0
-32 -213 214 0
32 -24 214 0
213 24 -214 0
-213 -24 214 0
-214 215 0
-208 215 0
214 208 -215 0
-212 216 0
-209 216 0
212 209 -216 0
-24 217 0
-210 217 0
24 210 -217 0
-218 25 217 0
-218 -25 -217 0
218 -25 217 0
218 25 -217 0
-32 218 -219 0
32 25 -219 0
-32 -218 219 0
32 -25 219 0
218 25 -219 0
-218 -25 219 0
-220 219 216 0
-220 -219 -216 0
220 -219 216 0
220 219 -216 0
-32 220 -221 0
32 25 -221 0
-32 -220 221 0
32 -25 221 0
220 25 -221 0
-220 -25 221 0
-221 222 0
-215 222 0
221 215 -222 0
-219 223 0
-216 223 0
219 216 -223 0
-25 224 0
-217 224 0
25 217 -224 0
-225 26 224 0
-225 -26 -224 0
225 -26 224 0
225 26 -224 0
-32 225 -226 0
32 26 -226 0
-32 -225 226 0
32 -26 226 0
225 26 -226 0
-225 -26 226 0
-227 226 223 0
-227 -226 -223 0
227 -226 223 0
227 226 -223 0
-32 227 -228 0
32 26 -228 0
-32 -227 228 0
32 -26 228 0
227 26 -228 0
-227 -26 228 0
-228 229 0
-222 229 0
228 222 -229 0
-226 230 0
-223 230 0
226 223 -230 0
-26 231 0
-224 231 0
26 224 -231 0
-232 27 231 0
-232 -27 -231 0
232 -27 231 0
232 27 -231 0
-32 232 -233 0
32 27 -233 0
-32 -232 233 0
32 -27 233 0
232 27 -233 0
-232 -27 233 0
-234 233 230 0
-234 -233 -230 0
234 -233 230 0
234 233 -230 0
-32 234 -235 0
32 27 -235 0
-32 -234 235 0
32 -27 235 0
234 27 -235 0
-234 -27 235 0
-235 236 0
-229 236 0
235 229 -236 0
-233 237 0
-230 237 0
233 230 -237 0
-27 238 0
-231 238 0
27 231 -238 0
-239 28 238 0
-239 -28 -238 0
239 -28 238 0
239 28 -238 0
-32 239 -240 0
32 28 -240 0
-32 -239 240 0
32 -28 240 0
239 28 -240 0
-239 -28 240 0
-241 240 237 0
-241 -240 -237 0
241 -240 237 0
241 240 -237 0
-32 241 -242 0
32 28 -242 0
-32 -241 242 0
32 -28 242 0
241 28 -242 0
-241 -28 242 0
-242 243 0
-236 243 0
242 236 -243 0
-240 244 0
-237 244 0
240 237 -244 0
-28 245 0
-238 245 0
28 238 -245 0
-246 29 245 0
-246 -29 -245 0
246 -29 245 0
246 29 -245 0
-32 246 -247 0
32 29 -247 0
-32 -246 247 0
32 -29 247 0
246 29 -247 0
-246 -29 247 0
-248 247 244 0
-248 -247 -244 0
248 -247 244 0
248 247 -244 0
-32 248 -249 0
32 29 -249 0
-32 -248 249 0
32 -29 249 0
248 29 -249 0
-248 -29 249 0
-249 250 0
-243 250 0
249 243 -250 0
-247 251 0
-244 251 0
247 244 -251 0
-29 252 0
-245 252 0
29 245 -252 0
-253 30 252 0
-253 -30 -252 0
253 -30 252 0
253 30 -252 0
-32 253 -254 0
32 30 -254 0
-32 -253 254 0
32 -30 254 0
253 30 -254 0
-253 -30 254 0
-255 254 251 0
-255 -254 -251 0
255 -254 251 0
255 254 -251 0
-32 255 -256 0
32 30 -256 0
-32 -255 256 0
32 -30 256 0
255 30 -256 0
-255 -30 256 0
-256 257 0
-250 257 0
256 250 -257 0
-254 258 0
-251 258 0
254 251 -258 0
-30 259 0
-252 259 0
30 252 -259 0
-260 31 259 0
-260 -31 -259 0
260 -31 259 0
260 31 -259 0
-32 260 -261 0
32 31 -261 0
-32 -260 261 0
32 -31 261 0
260 31 -261 0
-260 -31 261 0
-262 261 258 0
-262 -261 -258 0
262 -261 258 0
262 261 -258 0
-32 262 -263 0
32 31 -263 0
-32 -262 263 0
32 -31 263 0
262 31 -263 0
-262 -31 263 0
-263 264 0
-257 264 0
263 257 -264 0
-31 265 0
-259 265 0
31 259 -265 0
-266 32 -265 0
-266 -32 265 0
266 -32 -265 0
266 32 265 0
32 267 0
-266 267 0
-32 266 -267 0
-261 268 0
-258 268 0
261 258 -268 0
-269 267 -268 0
-269 -267 268 0
269 -267 -268 0
269 267 268 0
-32 269 -270 0
32 -267 -270 0
-32 -269 270 0
32 267 270 0
269 -267 -270 0
-269 267 270 0
-270 271 0
-264 271 0
270 264 -271 0
32 272 0
-267 268 272 0
-32 267 -272 0
-32 -268 -272 0
-270 273 0
-264 273 0
270 264 -273 0
32 274 0
-267 268 274 0
-32 267 -274 0
-32 -268 -274 0
-274 -273 0
-2 275 0
-1 275 0
-2 -1 275 0
2 1 -275 0
-2 276 0
-1 276 0
-2 -1 276 0
2 1 -276 0
-3 277 0
-276 277 0
-3 -276 277 0
3 276 -277 0
-3 278 0
-276 278 0
-3 -276 278 0
3 276 -278 0
-4 279 0
-278 279 0
-4 -278 279 0
4 278 -279 0
-4 280 0
-278 280 0
-4 -278 280 0
4 278 -280 0
-5 281 0
-280 281 0
-5 -280 281 0
5 280 -281 0
-5 282 0
-280 282 0
-5 -280 282 0
5 280 -282 0
-6 283 0
-282 283 0
-6 -282 283 0
6 282 -283 0
-6 284 0
-282 284 0
-6 -282 284 0
6 282 -284 0
-7 285 0
-284 285 0
-7 -284 285 0
7 284 -285 0
-7 286 0
-284 286 0
-7 -284 286 0
7 284 -286 0
-8 287 0
-286 287 0
-8 -286 287 0
8 286 -287 0
-8 288 0
-286 288 0
-8 -286 288 0
8 286 -288 0
-9 289 0
-288 289 0
-9 -288 289 0
9 288 -289 0
-9 290 0
-288 290 0
-9 -288 290 0
9 288 -290 0
-10 291 0
-290 291 0
-10 -290 291 0
10 290 -291 0
-10 292 0
-290 292 0
-10 -290 292 0
10 290 -292 0
-11 293 0
-292 293 0
-11 -292 293 0
11 292 -293 0
-11 294 0
-292 294 0
-11 -292 294 0
11 292 -294 0
-12 295 0
-294 295 0
-12 -294 295 0
12 294 -295 0
-12 296 0
-294 296 0
-12 -294 296 0
12 294 -296 0
-13 297 0
-296 297 0
-13 -296 297 0
13 296 -297 0
-13 298 0
-296 298 0
-13 -296 298 0
13 296 -298 0
-14 299 0
-298 299 0
-14 -298 299 0
14 298 -299 0
-14 300 0
-298 300 0
-14 -298 300 0
14 298 -300 0
-15 301 0
-300 301 0
-15 -300 301 0
15 300 -301 0
-15 302 0
-300 302 0
-15 -300 302 0
15 300 -302 0
-16 303 0
-302 303 0
-16 -302 303 0
16 302 -303 0
-16 304 0
-302 304 0
-16 -302 304 0
16 302 -304 0
-17 305 0
-304 305 0
-17 -304 305 0
17 304 -305 0
-17 306 0
-304 306 0
-17 -304 306 0
17 304 -306 0
-18 307 0
-306 307 0
-18 -306 307 0
18 306 -307 0
-18 308 0
-306 308 0
-18 -306 308 0
18 306 -308 0
-19 309 0
-308 309 0
-19 -308 309 0
19 308 -309 0
-19 310 0
-308 310 0
-19 -308 310 0
19 308 -310 0
-20 311 0
-310 311 0
-20 -310 311 0
20 310 -311 0
-20 312 0
-310 312 0
-20 -310 312 0
20 310 -312 0
-21 313 0
-312 313 0
-21 -312 313 0
21 312 -313 0
-21 314 0
-312 314 0
-21 -312 314 0
21 312 -314 0
-22 315 0
-314 315 0
-22 -314 315 0
22 314 -315 0
-22 316 0
-314 316 0
-22 -314 316 0
22 314 -316 0
-23 317 0
-316 317 0
-23 -316 317 0
23 316 -317 0
-23 318 0
-316 318 0
-23 -316 318 0
23 316 -318 0
-24 319 0
-318 319 0
-24 -318 319 0
24 318 -319 0
-24 320 0
-318 320 0
-24 -318 320 0
24 318 -320 0
-25 321 0
-320 321 0
-25 -320 321 0
25 320 -321 0
-25 322 0
-320 322 0
-25 -320 322 0
25 320 -322 0
-26 323 0
-322 323 0
-26 -322 323 0
26 322 -323 0
-26 324 0
-322 324 0
-26 -322 324 0
26 322 -324 0
-27 325 0
-324 325 0
-27 -324 325 0
27 324 -325 0
-27 326 0
-324 326 0
-27 -324 326 0
27 324 -326 0
-28 327 0
-326 327 0
-28 -326 327 0
28 326 -327 0
-28 328 0
-326 328 0
-28 -326 328 0
28 326 -328 0
-29 329 0
-328 329 0
-29 -328 329 0
29 328 -329 0
-29 330 0
-328 330 0
-29 -328 330 0
29 328 -330 0
-30 331 0
-330 331 0
-30 -330 331 0
30 330 -331 0
-30 332 0
-330 332 0
-30 -330 332 0
30 330 -332 0
31 332 0
32 333 0
-1 333 0
-32 1 -333 0
